41
1 0 35
2 0 15
2 1 46
3 0 24
3 1 34
3 2 37
4 0 8
4 1 44
4 2 41
4 3 12
5 0 4
5 1 15
5 2 8
5 3 8
5 4 23
6 0 43
6 1 13
6 2 20
6 3 17
6 4 2
6 5 5
7 0 40
7 1 41
7 2 41
7 3 33
7 4 30
7 5 33
7 6 24
8 0 12
8 1 5
8 2 25
8 3 4
8 4 13
8 5 16
8 6 8
8 7 39
9 0 39
9 1 24
9 2 12
9 3 17
9 4 40
9 5 40
9 6 12
9 7 18
9 8 27
10 0 20
10 1 42
10 2 25
10 3 37
10 4 26
10 5 30
10 6 31
10 7 22
10 8 25
10 9 40
11 0 30
11 1 33
11 2 24
11 3 13
11 4 1
11 5 25
11 6 3
11 7 24
11 8 23
11 9 25
11 10 45
12 0 33
12 1 14
12 2 24
12 3 29
12 4 36
12 5 8
12 6 36
12 7 38
12 8 31
12 9 13
12 10 26
12 11 15
13 0 37
13 1 45
13 2 41
13 3 25
13 4 11
13 5 2
13 6 31
13 7 25
13 8 29
13 9 4
13 10 42
13 11 42
13 12 40
14 0 16
14 1 19
14 2 6
14 3 44
14 4 31
14 5 13
14 6 33
14 7 15
14 8 24
14 9 7
14 10 11
14 11 1
14 12 45
14 13 36
15 0 43
15 1 14
15 2 33
15 3 30
15 4 19
15 5 21
15 6 30
15 7 35
15 8 38
15 9 43
15 10 28
15 11 14
15 12 23
15 13 11
15 14 2
16 0 22
16 1 36
16 2 7
16 3 10
16 4 20
16 5 34
16 6 40
16 7 35
16 8 35
16 9 36
16 10 33
16 11 29
16 12 25
16 13 30
16 14 9
16 15 14
17 0 27
17 1 41
17 2 14
17 3 19
17 4 21
17 5 8
17 6 41
17 7 41
17 8 11
17 9 3
17 10 6
17 11 1
17 12 20
17 13 27
17 14 21
17 15 12
17 16 13
18 0 14
18 1 29
18 2 8
18 3 13
18 4 26
18 5 30
18 6 36
18 7 46
18 8 42
18 9 36
18 10 41
18 11 8
18 12 5
18 13 36
18 14 26
18 15 38
18 16 4
18 17 18
19 0 29
19 1 37
19 2 35
19 3 11
19 4 38
19 5 8
19 6 36
19 7 2
19 8 5
19 9 3
19 10 17
19 11 37
19 12 9
19 13 10
19 14 37
19 15 2
19 16 10
19 17 2
19 18 18
20 0 22
20 1 17
20 2 6
20 3 5
20 4 42
20 5 26
20 6 26
20 7 32
20 8 39
20 9 32
20 10 9
20 11 19
20 12 5
20 13 5
20 14 5
20 15 34
20 16 46
20 17 3
20 18 24
20 19 7
21 0 4
21 1 26
21 2 13
21 3 25
21 4 5
21 5 35
21 6 20
21 7 18
21 8 25
21 9 34
21 10 23
21 11 38
21 12 22
21 13 27
21 14 28
21 15 18
21 16 14
21 17 32
21 18 21
21 19 42
21 20 8
22 0 1
22 1 42
22 2 46
22 3 5
22 4 37
22 5 28
22 6 42
22 7 12
22 8 25
22 9 38
22 10 37
22 11 2
22 12 32
22 13 26
22 14 33
22 15 27
22 16 5
22 17 32
22 18 42
22 19 4
22 20 10
22 21 21
23 0 4
23 1 3
23 2 32
23 3 27
23 4 31
23 5 10
23 6 39
23 7 8
23 8 31
23 9 34
23 10 46
23 11 39
23 12 2
23 13 18
23 14 29
23 15 32
23 16 7
23 17 4
23 18 15
23 19 17
23 20 27
23 21 19
23 22 15
24 0 5
24 1 10
24 2 8
24 3 22
24 4 28
24 5 28
24 6 28
24 7 45
24 8 42
24 9 37
24 10 11
24 11 43
24 12 3
24 13 24
24 14 9
24 15 45
24 16 39
24 17 42
24 18 39
24 19 1
24 20 40
24 21 23
24 22 30
24 23 15
25 0 5
25 1 1
25 2 32
25 3 12
25 4 23
25 5 19
25 6 32
25 7 19
25 8 4
25 9 40
25 10 41
25 11 40
25 12 39
25 13 41
25 14 16
25 15 2
25 16 21
25 17 35
25 18 36
25 19 15
25 20 14
25 21 38
25 22 22
25 23 4
25 24 34
26 0 24
26 1 22
26 2 10
26 3 5
26 4 45
26 5 24
26 6 6
26 7 14
26 8 35
26 9 38
26 10 44
26 11 43
26 12 43
26 13 30
26 14 44
26 15 42
26 16 34
26 17 46
26 18 41
26 19 27
26 20 9
26 21 7
26 22 41
26 23 21
26 24 35
26 25 29
27 0 19
27 1 1
27 2 33
27 3 9
27 4 4
27 5 22
27 6 46
27 7 25
27 8 6
27 9 12
27 10 21
27 11 40
27 12 32
27 13 32
27 14 40
27 15 43
27 16 17
27 17 44
27 18 20
27 19 27
27 20 34
27 21 24
27 22 45
27 23 18
27 24 27
27 25 30
27 26 35
28 0 33
28 1 9
28 2 21
28 3 13
28 4 7
28 5 3
28 6 32
28 7 13
28 8 30
28 9 26
28 10 17
28 11 13
28 12 8
28 13 31
28 14 41
28 15 3
28 16 3
28 17 32
28 18 43
28 19 4
28 20 25
28 21 34
28 22 37
28 23 23
28 24 29
28 25 5
28 26 30
28 27 24
29 0 36
29 1 4
29 2 38
29 3 16
29 4 41
29 5 31
29 6 13
29 7 19
29 8 16
29 9 13
29 10 38
29 11 17
29 12 28
29 13 27
29 14 33
29 15 25
29 16 46
29 17 33
29 18 28
29 19 41
29 20 11
29 21 35
29 22 9
29 23 44
29 24 23
29 25 11
29 26 40
29 27 41
29 28 1
30 0 35
30 1 9
30 2 45
30 3 2
30 4 24
30 5 9
30 6 1
30 7 44
30 8 37
30 9 24
30 10 22
30 11 10
30 12 42
30 13 15
30 14 15
30 15 27
30 16 18
30 17 46
30 18 44
30 19 23
30 20 1
30 21 21
30 22 35
30 23 30
30 24 10
30 25 22
30 26 37
30 27 12
30 28 39
30 29 2
31 0 13
31 1 18
31 2 24
31 3 17
31 4 13
31 5 23
31 6 33
31 7 15
31 8 1
31 9 43
31 10 30
31 11 31
31 12 42
31 13 46
31 14 23
31 15 28
31 16 38
31 17 8
31 18 14
31 19 13
31 20 23
31 21 6
31 22 44
31 23 9
31 24 43
31 25 40
31 26 37
31 27 38
31 28 18
31 29 7
31 30 6
32 0 43
32 1 2
32 2 2
32 3 3
32 4 3
32 5 28
32 6 6
32 7 45
32 8 30
32 9 20
32 10 35
32 11 29
32 12 20
32 13 2
32 14 20
32 15 2
32 16 2
32 17 30
32 18 10
32 19 19
32 20 16
32 21 31
32 22 35
32 23 12
32 24 21
32 25 3
32 26 4
32 27 26
32 28 33
32 29 36
32 30 32
32 31 44
33 0 9
33 1 2
33 2 11
33 3 39
33 4 5
33 5 1
33 6 44
33 7 44
33 8 31
33 9 4
33 10 33
33 11 13
33 12 2
33 13 38
33 14 5
33 15 35
33 16 7
33 17 21
33 18 9
33 19 18
33 20 6
33 21 17
33 22 38
33 23 40
33 24 8
33 25 38
33 26 20
33 27 23
33 28 11
33 29 2
33 30 38
33 31 16
33 32 36
34 0 19
34 1 21
34 2 33
34 3 25
34 4 18
34 5 11
34 6 15
34 7 14
34 8 10
34 9 29
34 10 4
34 11 25
34 12 29
34 13 31
34 14 40
34 15 41
34 16 24
34 17 20
34 18 12
34 19 40
34 20 26
34 21 35
34 22 31
34 23 37
34 24 33
34 25 12
34 26 21
34 27 19
34 28 2
34 29 11
34 30 9
34 31 12
34 32 15
34 33 33
35 0 37
35 1 44
35 2 3
35 3 37
35 4 30
35 5 4
35 6 14
35 7 6
35 8 8
35 9 46
35 10 5
35 11 7
35 12 20
35 13 45
35 14 27
35 15 20
35 16 9
35 17 23
35 18 8
35 19 4
35 20 14
35 21 27
35 22 41
35 23 15
35 24 39
35 25 22
35 26 16
35 27 29
35 28 4
35 29 2
35 30 35
35 31 38
35 32 14
35 33 29
35 34 33
36 0 12
36 1 3
36 2 24
36 3 39
36 4 45
36 5 9
36 6 41
36 7 37
36 8 12
36 9 1
36 10 6
36 11 28
36 12 6
36 13 14
36 14 38
36 15 37
36 16 40
36 17 43
36 18 38
36 19 42
36 20 10
36 21 23
36 22 8
36 23 38
36 24 46
36 25 4
36 26 33
36 27 15
36 28 31
36 29 8
36 30 46
36 31 2
36 32 20
36 33 7
36 34 15
36 35 9
37 0 17
37 1 3
37 2 14
37 3 7
37 4 26
37 5 28
37 6 17
37 7 25
37 8 8
37 9 18
37 10 43
37 11 25
37 12 43
37 13 45
37 14 11
37 15 27
37 16 23
37 17 15
37 18 45
37 19 24
37 20 41
37 21 23
37 22 14
37 23 46
37 24 21
37 25 45
37 26 38
37 27 30
37 28 20
37 29 32
37 30 35
37 31 12
37 32 5
37 33 32
37 34 11
37 35 4
37 36 44
38 0 14
38 1 12
38 2 6
38 3 10
38 4 34
38 5 14
38 6 31
38 7 3
38 8 46
38 9 7
38 10 28
38 11 5
38 12 9
38 13 23
38 14 21
38 15 35
38 16 31
38 17 24
38 18 46
38 19 5
38 20 31
38 21 20
38 22 37
38 23 6
38 24 20
38 25 38
38 26 12
38 27 2
38 28 40
38 29 40
38 30 38
38 31 33
38 32 4
38 33 12
38 34 30
38 35 9
38 36 40
38 37 11
39 0 26
39 1 22
39 2 17
39 3 39
39 4 22
39 5 25
39 6 34
39 7 28
39 8 17
39 9 5
39 10 34
39 11 5
39 12 19
39 13 19
39 14 17
39 15 7
39 16 8
39 17 13
39 18 40
39 19 28
39 20 30
39 21 8
39 22 42
39 23 41
39 24 38
39 25 44
39 26 32
39 27 44
39 28 34
39 29 27
39 30 20
39 31 4
39 32 18
39 33 40
39 34 7
39 35 36
39 36 11
39 37 11
39 38 45
40 0 39
40 1 24
40 2 44
40 3 20
40 4 3
40 5 4
40 6 18
40 7 4
40 8 20
40 9 28
40 10 43
40 11 2
40 12 24
40 13 35
40 14 5
40 15 27
40 16 34
40 17 17
40 18 40
40 19 16
40 20 17
40 21 8
40 22 35
40 23 38
40 24 24
40 25 44
40 26 41
40 27 38
40 28 43
40 29 11
40 30 33
40 31 14
40 32 28
40 33 19
40 34 45
40 35 39
40 36 45
40 37 18
40 38 23
40 39 29
